M = 5;
K = 7;
NumMachines = [4, 2, 3, 1, 1];
Profit = [10, 6, 8, 4, 11, 9, 3];
Time = array2d(1..6, 1..5, [0.5, 0.1, 0.2, 0.05, 0.0, 0.7, 0.2, 0.0, 0.03, 0.0, 0.0, 0.0, 0.8, 0.0, 0.01, 0.0, 0.3, 0.0, 0.07, 0.0, 0.3, 0.0, 0.0, 0.1, 0.05, 0.5, 0.0, 0.6, 0.08, 0.05]);
Downtime = array2d(1..1, 1..5, [0, 1, 1, 1, 1]);
Limit = array2d(1..7, 1..6, [500, 600, 300, 200, 0, 500, 1000, 500, 600, 300, 100, 500, 300, 200, 0, 400, 500, 100, 300, 0, 0, 500, 100, 300, 800, 400, 500, 200, 1000, 1100, 200, 300, 400, 0, 300, 500, 100, 150, 100, 100, 0, 60]);
StorePrice = 0.5;
KeepQuantity = 100;
WorkHours = 8.0;
